HUN,8,6,38
3,2,4,2,1,4,2,12,5,7,0,29
4,22,3,13,5,7,0,15,2,5,1,9
5,24,4,28,3,10,2,2,1,28,0,24
0,6,5,27,1,19,2,25,3,16,4,4
2,17,1,19,4,16,5,8,0,5,3,24
5,24,1,10,2,3,0,27,4,12,3,7
2,10,3,14,5,3,4,16,0,14,1,5
4,26,3,10,2,30,0,15,5,9,1,15
